problem_generation/data/GISP/train/er_n=63_m=1143_p=0.60_SET2_setparam=100.00_alpha=0.50_877.lp
maximize
OBJ:100x0 + 100x1 + 100x2 + 100x3 + 100x4 + 100x5 + 100x6 + 100x7 + 100x8 + 100x9 + 100x10 + 100x11 + 100x12 + 100x13 + 100x14 + 100x15 + 100x16 + 100x17 + 100x18 + 100x19 + 100x20 + 100x21 + 100x22 + 100x23 + 100x24 + 100x25 + 100x26 + 100x27 + 100x28 + 100x29 + 100x30 + 100x31 + 100x32 + 100x33 + 100x34 + 100x35 + 100x36 + 100x37 + 100x38 + 100x39 + 100x40 + 100x41 + 100x42 + 100x43 + 100x44 + 100x45 + 100x46 + 100x47 + 100x48 + 100x49 + 100x50 + 100x51 + 100x52 + 100x53 + 100x54 + 100x55 + 100x56 + 100x57 + 100x58 + 100x59 + 100x60 + 100x61 + 100x62 - y15_21 - y55_57 - y26_30 - y26_39 - y18_35 - y0_5 - y21_37 - y11_14 - y40_50 - y21_46 - y0_23 - y6_57 - y11_23 - y40_59 - y41_42 - y10_36 - y33_47 - y2_41 - y3_6 - y10_54 - y25_43 - y3_15 - y25_61 - y43_60 - y22_37 - y14_33 - y14_42 - y47_48 - y15_25 - y55_61 - y9_49 - y17_62 - y28_62 - y9_58 - y6_34 - y29_36 - y48_49 - y0_9 - y6_43 - y29_45 - y40_45 - y40_54 - y21_50 - y6_61 - y21_59 - y25_38 - y3_10 - y22_23 - y51_59 - y32_55 - y22_32 - y13_51 - y14_28 - y13_60 - y55_56 - y17_39 - y28_48 - y47_61 - y5_55 - y17_57 - y29_40 - y21_36 - y6_47 - y29_49 - y6_56 - y10_17 - y39_62 - y54_60 - y25_42 - y51_54 - y43_59 - y24_55 - y36_38 - y17_34 - y7_11 - y55_60 - y17_43 - y47_56 - y9_39 - y17_52 - y5_59 - y6_24 - y17_61 - y58_62 - y50_58 - y31_62 - y10_39 - y12_58 - y23_58 - y51_58 - y13_41 - y24_41 - y43_54 - y24_50 - y17_29 - y17_38 - y28_38 - y9_34 - y17_47 - y28_47 - y28_56 - y9_52 - y50_53 - y6_28 - y29_30 - y9_61 - y61_62 - y6_46 - y12_44 - y31_57 - y54_59 - y12_53 - y2_30 - y4_49 - y13_36 - y16_32 - y24_54 - y16_59 - y5_22 - y36_37 - y17_42 - y9_38 - y5_49 - y6_14 - y6_23 - y50_57 - y0_56 - y39_47 - y23_39 - y23_48 - y20_61 - y4_44 - y12_57 - y13_22 - y23_57 - y16_18 - y43_44 - y43_53 - y16_36 - y13_49 - y24_49 - y35_49 - y1_56 - y35_58 - y17_19 - y49_51 - y9_24 - y17_37 - y50_52 - y8_46 - y19_46 - y27_59 - y30_55 - y42_57 - y39_42 - y12_25 - y39_51 - y23_34 - y2_11 - y4_30 - y20_56 - y31_56 - y23_52 - y13_17 - y4_48 - y23_61 - y24_26 - y32_39 - y1_33 - y1_42 - y16_40 - y16_49 - y5_12 - y9_19 - y26_53 - y5_30 - y38_55 - y9_28 - y8_32 - y8_41 - y27_54 - y19_59 - y12_20 - y12_29 - y4_25 - y12_38 - y23_38 - y31_51 - y23_47 - y1_10 - y4_43 - y23_56 - y34_53 - y4_61 - y16_26 - y22_60 - y45_62 - y16_35 - y46_54 - y15_48 - y5_25 - y15_57 - y38_59 - y27_31 - y7_62 - y19_36 - y0_32 - y11_32 - y30_45 - y11_41 - y0_50 - y41_60 - y52_60 - y20_37 - y4_20 - y12_33 - y4_29 - y53_61 - y56_57 - y14_60 - y18_39 - y26_52 - y8_13 - y8_22 - y0_18 - y19_31 - y8_40 - y11_36 - y11_45 - y41_46 - y12_19 - y12_28 - y23_28 - y12_37 - y25_56 - y22_41 - y22_59 - y14_55 - y38_40 - y18_34 - y8_17 - y27_30 - y19_26 - y8_26 - y19_44 - y11_40 - y12_14 - y41_50 - y12_23 - y41_59 - y52_59 - y10_53 - y25_51 - y4_28 - y2_58 - y22_45 - y14_41 - y3_50 - y14_50 - y37_52 - y15_24 - y18_29 - y18_38 - y15_51 - y8_12 - y8_21 - y0_17 - y11_17 - y40_53 - y0_26 - y29_62 - y21_58 - y11_35 - y4_5 - y2_44 - y25_55 - y22_31 - y14_27 - y22_49 - y45_51 - y14_45 - y14_54 - y15_19 - y15_28 - y7_24 - y18_24 - y26_37 - y18_33 - y26_46 - y8_16 - y0_12 - y21_53 - y33_36 - y25_32 - y4_9 - y33_45 - y2_39 - y44_54 - y22_26 - y51_62 - y25_59 - y14_22 - y3_31 - y14_40 - y3_49 - y55_59 - y18_19 - y7_28 - y8_11 - y6_41 - y29_43 - y21_39 - y11_16 - y40_52 - y2_34 - y25_36 - y10_47 - y44_49 - y2_43 - y3_8 - y10_56 - y25_45 - y3_17 - y32_53 - y3_26 - y13_58 - y14_35 - y7_14 - y18_23 - y9_42 - y5_53 - y9_51 - y21_25 - y29_38 - y40_47 - y21_43 - y10_24 - y2_29 - y33_44 - y22_25 - y2_56 - y24_53 - y3_30 - y13_62 - y24_62 - y28_32 - y7_9 - y36_45 - y17_41 - y36_54 - y9_37 - y5_48 - y6_31 - y21_29 - y6_40 - y40_51 - y39_55 - y2_15 - y25_26 - y31_60 - y32_43 - y14_16 - y32_52 - y3_25 - y16_44 - y17_27 - y5_34 - y28_36 - y28_45 - y6_8 - y47_58 - y28_54 - y9_50 - y9_59 - y29_37 - y21_33 - y2_10 - y10_23 - y54_57 - y12_51 - y12_60 - y13_25 - y2_37 - y23_60 - y32_47 - y51_60 - y32_56 - y43_56 - y1_50 - y13_52 - y1_59 - y24_61 - y9_18 - y28_31 - y9_27 - y5_38 - y17_49 - y6_12 - y28_49 - y5_56 - y6_21 - y19_58 - y39_45 - y39_54 - y20_50 - y31_59 - y12_55 - y4_51 - y32_33 - y43_51 - y16_34 - y13_47 - y24_56 - y16_61 - y5_24 - y46_62 - y28_35 - y5_42 - y6_7 - y6_16 - y27_48 - y42_46 - y27_57 - y19_53 - y0_58 - y20_36 - y12_32 - y23_32 - y31_45 - y39_58 - y54_56 - y4_46 - y12_59 - y1_22 - y1_31 - y43_46 - y13_42 - y1_58 - y17_21 - y46_57 - y9_17 - y49_53 - y17_30 - y9_26 - y6_20 - y19_57 - y30_57 - y0_62 - y31_40 - y20_49 - y12_45 - y23_45 - y20_58 - y23_54 - y1_17 - y13_28 - y4_59 - y56_60 - y13_37 - y24_37 - y1_44 - y16_42 - y46_52 - y15_46 - y57_61 - y26_55 - y38_57 - y5_32 - y8_34 - y19_34 - y30_34 - y8_43 - y19_43 - y27_56 - y8_52 - y30_52 - y8_61 - y30_61 - y11_57 - y12_22 - y20_35 - y4_18 - y23_31 - y12_40 - y34_46 - y4_54 - y45_55 - y22_62 - y37_60 - y5_9 - y5_18 - y38_52 - y49_52 - y7_46 - y38_61 - y27_42 - y30_38 - y0_34 - y42_49 - y0_43 - y20_30 - y4_13 - y23_26 - y4_22 - y23_35 - y34_50 - y45_50 - y16_23 - y3_53 - y18_32 - y26_45 - y38_47 - y7_41 - y8_15 - y19_33 - y30_33 - y19_42 - y20_25 - y12_21 - y52_57 - y44_53 - y25_49 - y4_35 - y22_43 - y1_20 - y3_39 - y14_39 - y37_41 - y3_48 - y3_57 - y14_57 - y7_18 - y15_31 - y37_49 - y38_42 - y18_36 - y18_45 - y15_58 - y27_32 - y8_28 - y0_24 - y40_60 - y21_56 - y41_43 - y33_39 - y4_12 - y41_61 - y4_21 - y25_62 - y22_47 - y45_49 - y3_43 - y37_45 - y3_52 - y37_54 - y3_61 - y14_61 - y15_26 - y18_31 - y26_44 - y7_49 - y48_59 - y11_28 - y33_34 - y41_47 - y4_7 - y10_41 - y2_46 - y33_61 - y34_35 - y22_42 - y22_51 - y3_47
 Subject to
C1: x0+x1 <=1 
C2: x0+x5-y0_5 <=1 
C3: x0+x9-y0_9 <=1 
C4: x0+x10 <=1 
C5: x0+x12-y0_12 <=1 
C6: x0+x14 <=1 
C7: x0+x15 <=1 
C8: x0+x16 <=1 
C9: x0+x17-y0_17 <=1 
C10: x0+x18-y0_18 <=1 
C11: x0+x22 <=1 
C12: x0+x23-y0_23 <=1 
C13: x0+x24-y0_24 <=1 
C14: x0+x26-y0_26 <=1 
C15: x0+x29 <=1 
C16: x0+x30 <=1 
C17: x0+x32-y0_32 <=1 
C18: x0+x33 <=1 
C19: x0+x34-y0_34 <=1 
C20: x0+x38 <=1 
C21: x0+x39 <=1 
C22: x0+x40 <=1 
C23: x0+x42 <=1 
C24: x0+x43-y0_43 <=1 
C25: x0+x45 <=1 
C26: x0+x48 <=1 
C27: x0+x49 <=1 
C28: x0+x50-y0_50 <=1 
C29: x0+x51 <=1 
C30: x0+x55 <=1 
C31: x0+x56-y0_56 <=1 
C32: x0+x58-y0_58 <=1 
C33: x0+x62-y0_62 <=1 
C34: x1+x3 <=1 
C35: x1+x6 <=1 
C36: x1+x10-y1_10 <=1 
C37: x1+x15 <=1 
C38: x1+x17-y1_17 <=1 
C39: x1+x19 <=1 
C40: x1+x20-y1_20 <=1 
C41: x1+x22-y1_22 <=1 
C42: x1+x24 <=1 
C43: x1+x31-y1_31 <=1 
C44: x1+x32 <=1 
C45: x1+x33-y1_33 <=1 
C46: x1+x35 <=1 
C47: x1+x36 <=1 
C48: x1+x39 <=1 
C49: x1+x42-y1_42 <=1 
C50: x1+x44-y1_44 <=1 
C51: x1+x46 <=1 
C52: x1+x47 <=1 
C53: x1+x48 <=1 
C54: x1+x50-y1_50 <=1 
C55: x1+x51 <=1 
C56: x1+x54 <=1 
C57: x1+x55 <=1 
C58: x1+x56-y1_56 <=1 
C59: x1+x58-y1_58 <=1 
C60: x1+x59-y1_59 <=1 
C61: x1+x61 <=1 
C62: x2+x4 <=1 
C63: x2+x5 <=1 
C64: x2+x8 <=1 
C65: x2+x9 <=1 
C66: x2+x10-y2_10 <=1 
C67: x2+x11-y2_11 <=1 
C68: x2+x13 <=1 
C69: x2+x15-y2_15 <=1 
C70: x2+x18 <=1 
C71: x2+x19 <=1 
C72: x2+x20 <=1 
C73: x2+x21 <=1 
C74: x2+x22 <=1 
C75: x2+x25 <=1 
C76: x2+x27 <=1 
C77: x2+x29-y2_29 <=1 
C78: x2+x30-y2_30 <=1 
C79: x2+x32 <=1 
C80: x2+x33 <=1 
C81: x2+x34-y2_34 <=1 
C82: x2+x35 <=1 
C83: x2+x37-y2_37 <=1 
C84: x2+x39-y2_39 <=1 
C85: x2+x41-y2_41 <=1 
C86: x2+x42 <=1 
C87: x2+x43-y2_43 <=1 
C88: x2+x44-y2_44 <=1 
C89: x2+x45 <=1 
C90: x2+x46-y2_46 <=1 
C91: x2+x47 <=1 
C92: x2+x55 <=1 
C93: x2+x56-y2_56 <=1 
C94: x2+x58-y2_58 <=1 
C95: x3+x5 <=1 
C96: x3+x6-y3_6 <=1 
C97: x3+x8-y3_8 <=1 
C98: x3+x10-y3_10 <=1 
C99: x3+x11 <=1 
C100: x3+x15-y3_15 <=1 
C101: x3+x17-y3_17 <=1 
C102: x3+x19 <=1 
C103: x3+x22 <=1 
C104: x3+x23 <=1 
C105: x3+x24 <=1 
C106: x3+x25-y3_25 <=1 
C107: x3+x26-y3_26 <=1 
C108: x3+x27 <=1 
C109: x3+x30-y3_30 <=1 
C110: x3+x31-y3_31 <=1 
C111: x3+x33 <=1 
C112: x3+x37 <=1 
C113: x3+x39-y3_39 <=1 
C114: x3+x42 <=1 
C115: x3+x43-y3_43 <=1 
C116: x3+x45 <=1 
C117: x3+x47-y3_47 <=1 
C118: x3+x48-y3_48 <=1 
C119: x3+x49-y3_49 <=1 
C120: x3+x50-y3_50 <=1 
C121: x3+x52-y3_52 <=1 
C122: x3+x53-y3_53 <=1 
C123: x3+x55 <=1 
C124: x3+x57-y3_57 <=1 
C125: x3+x58 <=1 
C126: x3+x60 <=1 
C127: x3+x61-y3_61 <=1 
C128: x4+x5-y4_5 <=1 
C129: x4+x7-y4_7 <=1 
C130: x4+x9-y4_9 <=1 
C131: x4+x12-y4_12 <=1 
C132: x4+x13-y4_13 <=1 
C133: x4+x15 <=1 
C134: x4+x16 <=1 
C135: x4+x17 <=1 
C136: x4+x18-y4_18 <=1 
C137: x4+x19 <=1 
C138: x4+x20-y4_20 <=1 
C139: x4+x21-y4_21 <=1 
C140: x4+x22-y4_22 <=1 
C141: x4+x24 <=1 
C142: x4+x25-y4_25 <=1 
C143: x4+x26 <=1 
C144: x4+x27 <=1 
C145: x4+x28-y4_28 <=1 
C146: x4+x29-y4_29 <=1 
C147: x4+x30-y4_30 <=1 
C148: x4+x31 <=1 
C149: x4+x34 <=1 
C150: x4+x35-y4_35 <=1 
C151: x4+x38 <=1 
C152: x4+x41 <=1 
C153: x4+x42 <=1 
C154: x4+x43-y4_43 <=1 
C155: x4+x44-y4_44 <=1 
C156: x4+x45 <=1 
C157: x4+x46-y4_46 <=1 
C158: x4+x48-y4_48 <=1 
C159: x4+x49-y4_49 <=1 
C160: x4+x51-y4_51 <=1 
C161: x4+x54-y4_54 <=1 
C162: x4+x57 <=1 
C163: x4+x59-y4_59 <=1 
C164: x4+x61-y4_61 <=1 
C165: x4+x62 <=1 
C166: x5+x9-y5_9 <=1 
C167: x5+x12-y5_12 <=1 
C168: x5+x13 <=1 
C169: x5+x14 <=1 
C170: x5+x16 <=1 
C171: x5+x17 <=1 
C172: x5+x18-y5_18 <=1 
C173: x5+x21 <=1 
C174: x5+x22-y5_22 <=1 
C175: x5+x23 <=1 
C176: x5+x24-y5_24 <=1 
C177: x5+x25-y5_25 <=1 
C178: x5+x27 <=1 
C179: x5+x29 <=1 
C180: x5+x30-y5_30 <=1 
C181: x5+x31 <=1 
C182: x5+x32-y5_32 <=1 
C183: x5+x33 <=1 
C184: x5+x34-y5_34 <=1 
C185: x5+x36 <=1 
C186: x5+x37 <=1 
C187: x5+x38-y5_38 <=1 
C188: x5+x42-y5_42 <=1 
C189: x5+x43 <=1 
C190: x5+x44 <=1 
C191: x5+x46 <=1 
C192: x5+x48-y5_48 <=1 
C193: x5+x49-y5_49 <=1 
C194: x5+x50 <=1 
C195: x5+x53-y5_53 <=1 
C196: x5+x55-y5_55 <=1 
C197: x5+x56-y5_56 <=1 
C198: x5+x58 <=1 
C199: x5+x59-y5_59 <=1 
C200: x5+x60 <=1 
C201: x5+x61 <=1 
C202: x6+x7-y6_7 <=1 
C203: x6+x8-y6_8 <=1 
C204: x6+x12-y6_12 <=1 
C205: x6+x14-y6_14 <=1 
C206: x6+x15 <=1 
C207: x6+x16-y6_16 <=1 
C208: x6+x19 <=1 
C209: x6+x20-y6_20 <=1 
C210: x6+x21-y6_21 <=1 
C211: x6+x23-y6_23 <=1 
C212: x6+x24-y6_24 <=1 
C213: x6+x25 <=1 
C214: x6+x28-y6_28 <=1 
C215: x6+x29 <=1 
C216: x6+x30 <=1 
C217: x6+x31-y6_31 <=1 
C218: x6+x34-y6_34 <=1 
C219: x6+x39 <=1 
C220: x6+x40-y6_40 <=1 
C221: x6+x41-y6_41 <=1 
C222: x6+x43-y6_43 <=1 
C223: x6+x44 <=1 
C224: x6+x45 <=1 
C225: x6+x46-y6_46 <=1 
C226: x6+x47-y6_47 <=1 
C227: x6+x55 <=1 
C228: x6+x56-y6_56 <=1 
C229: x6+x57-y6_57 <=1 
C230: x6+x58 <=1 
C231: x6+x59 <=1 
C232: x6+x61-y6_61 <=1 
C233: x7+x8 <=1 
C234: x7+x9-y7_9 <=1 
C235: x7+x11-y7_11 <=1 
C236: x7+x12 <=1 
C237: x7+x14-y7_14 <=1 
C238: x7+x15 <=1 
C239: x7+x17 <=1 
C240: x7+x18-y7_18 <=1 
C241: x7+x19 <=1 
C242: x7+x23 <=1 
C243: x7+x24-y7_24 <=1 
C244: x7+x25 <=1 
C245: x7+x28-y7_28 <=1 
C246: x7+x32 <=1 
C247: x7+x35 <=1 
C248: x7+x37 <=1 
C249: x7+x41-y7_41 <=1 
C250: x7+x42 <=1 
C251: x7+x44 <=1 
C252: x7+x45 <=1 
C253: x7+x46-y7_46 <=1 
C254: x7+x48 <=1 
C255: x7+x49-y7_49 <=1 
C256: x7+x50 <=1 
C257: x7+x52 <=1 
C258: x7+x55 <=1 
C259: x7+x56 <=1 
C260: x7+x57 <=1 
C261: x7+x59 <=1 
C262: x7+x60 <=1 
C263: x7+x62-y7_62 <=1 
C264: x8+x9 <=1 
C265: x8+x11-y8_11 <=1 
C266: x8+x12-y8_12 <=1 
C267: x8+x13-y8_13 <=1 
C268: x8+x14 <=1 
C269: x8+x15-y8_15 <=1 
C270: x8+x16-y8_16 <=1 
C271: x8+x17-y8_17 <=1 
C272: x8+x18 <=1 
C273: x8+x19 <=1 
C274: x8+x20 <=1 
C275: x8+x21-y8_21 <=1 
C276: x8+x22-y8_22 <=1 
C277: x8+x24 <=1 
C278: x8+x25 <=1 
C279: x8+x26-y8_26 <=1 
C280: x8+x28-y8_28 <=1 
C281: x8+x29 <=1 
C282: x8+x31 <=1 
C283: x8+x32-y8_32 <=1 
C284: x8+x34-y8_34 <=1 
C285: x8+x36 <=1 
C286: x8+x39 <=1 
C287: x8+x40-y8_40 <=1 
C288: x8+x41-y8_41 <=1 
C289: x8+x42 <=1 
C290: x8+x43-y8_43 <=1 
C291: x8+x45 <=1 
C292: x8+x46-y8_46 <=1 
C293: x8+x47 <=1 
C294: x8+x49 <=1 
C295: x8+x51 <=1 
C296: x8+x52-y8_52 <=1 
C297: x8+x56 <=1 
C298: x8+x57 <=1 
C299: x8+x59 <=1 
C300: x8+x60 <=1 
C301: x8+x61-y8_61 <=1 
C302: x9+x17-y9_17 <=1 
C303: x9+x18-y9_18 <=1 
C304: x9+x19-y9_19 <=1 
C305: x9+x22 <=1 
C306: x9+x24-y9_24 <=1 
C307: x9+x25 <=1 
C308: x9+x26-y9_26 <=1 
C309: x9+x27-y9_27 <=1 
C310: x9+x28-y9_28 <=1 
C311: x9+x33 <=1 
C312: x9+x34-y9_34 <=1 
C313: x9+x35 <=1 
C314: x9+x37-y9_37 <=1 
C315: x9+x38-y9_38 <=1 
C316: x9+x39-y9_39 <=1 
C317: x9+x41 <=1 
C318: x9+x42-y9_42 <=1 
C319: x9+x43 <=1 
C320: x9+x46 <=1 
C321: x9+x49-y9_49 <=1 
C322: x9+x50-y9_50 <=1 
C323: x9+x51-y9_51 <=1 
C324: x9+x52-y9_52 <=1 
C325: x9+x54 <=1 
C326: x9+x55 <=1 
C327: x9+x57 <=1 
C328: x9+x58-y9_58 <=1 
C329: x9+x59-y9_59 <=1 
C330: x9+x60 <=1 
C331: x9+x61-y9_61 <=1 
C332: x10+x17-y10_17 <=1 
C333: x10+x19 <=1 
C334: x10+x20 <=1 
C335: x10+x22 <=1 
C336: x10+x23-y10_23 <=1 
C337: x10+x24-y10_24 <=1 
C338: x10+x25 <=1 
C339: x10+x28 <=1 
C340: x10+x29 <=1 
C341: x10+x31 <=1 
C342: x10+x35 <=1 
C343: x10+x36-y10_36 <=1 
C344: x10+x39-y10_39 <=1 
C345: x10+x41-y10_41 <=1 
C346: x10+x43 <=1 
C347: x10+x44 <=1 
C348: x10+x47-y10_47 <=1 
C349: x10+x48 <=1 
C350: x10+x49 <=1 
C351: x10+x50 <=1 
C352: x10+x53-y10_53 <=1 
C353: x10+x54-y10_54 <=1 
C354: x10+x55 <=1 
C355: x10+x56-y10_56 <=1 
C356: x10+x59 <=1 
C357: x11+x12 <=1 
C358: x11+x14-y11_14 <=1 
C359: x11+x16-y11_16 <=1 
C360: x11+x17-y11_17 <=1 
C361: x11+x21 <=1 
C362: x11+x22 <=1 
C363: x11+x23-y11_23 <=1 
C364: x11+x27 <=1 
C365: x11+x28-y11_28 <=1 
C366: x11+x31 <=1 
C367: x11+x32-y11_32 <=1 
C368: x11+x33 <=1 
C369: x11+x35-y11_35 <=1 
C370: x11+x36-y11_36 <=1 
C371: x11+x39 <=1 
C372: x11+x40-y11_40 <=1 
C373: x11+x41-y11_41 <=1 
C374: x11+x45-y11_45 <=1 
C375: x11+x51 <=1 
C376: x11+x53 <=1 
C377: x11+x55 <=1 
C378: x11+x56 <=1 
C379: x11+x57-y11_57 <=1 
C380: x11+x58 <=1 
C381: x11+x59 <=1 
C382: x11+x60 <=1 
C383: x12+x14-y12_14 <=1 
C384: x12+x16 <=1 
C385: x12+x19-y12_19 <=1 
C386: x12+x20-y12_20 <=1 
C387: x12+x21-y12_21 <=1 
C388: x12+x22-y12_22 <=1 
C389: x12+x23-y12_23 <=1 
C390: x12+x24 <=1 
C391: x12+x25-y12_25 <=1 
C392: x12+x26 <=1 
C393: x12+x28-y12_28 <=1 
C394: x12+x29-y12_29 <=1 
C395: x12+x32-y12_32 <=1 
C396: x12+x33-y12_33 <=1 
C397: x12+x34 <=1 
C398: x12+x35 <=1 
C399: x12+x36 <=1 
C400: x12+x37-y12_37 <=1 
C401: x12+x38-y12_38 <=1 
C402: x12+x40-y12_40 <=1 
C403: x12+x43 <=1 
C404: x12+x44-y12_44 <=1 
C405: x12+x45-y12_45 <=1 
C406: x12+x50 <=1 
C407: x12+x51-y12_51 <=1 
C408: x12+x53-y12_53 <=1 
C409: x12+x54 <=1 
C410: x12+x55-y12_55 <=1 
C411: x12+x57-y12_57 <=1 
C412: x12+x58-y12_58 <=1 
C413: x12+x59-y12_59 <=1 
C414: x12+x60-y12_60 <=1 
C415: x13+x16 <=1 
C416: x13+x17-y13_17 <=1 
C417: x13+x22-y13_22 <=1 
C418: x13+x25-y13_25 <=1 
C419: x13+x26 <=1 
C420: x13+x28-y13_28 <=1 
C421: x13+x32 <=1 
C422: x13+x36-y13_36 <=1 
C423: x13+x37-y13_37 <=1 
C424: x13+x39 <=1 
C425: x13+x41-y13_41 <=1 
C426: x13+x42-y13_42 <=1 
C427: x13+x43 <=1 
C428: x13+x44 <=1 
C429: x13+x45 <=1 
C430: x13+x46 <=1 
C431: x13+x47-y13_47 <=1 
C432: x13+x48 <=1 
C433: x13+x49-y13_49 <=1 
C434: x13+x50 <=1 
C435: x13+x51-y13_51 <=1 
C436: x13+x52-y13_52 <=1 
C437: x13+x53 <=1 
C438: x13+x54 <=1 
C439: x13+x55 <=1 
C440: x13+x57 <=1 
C441: x13+x58-y13_58 <=1 
C442: x13+x59 <=1 
C443: x13+x60-y13_60 <=1 
C444: x13+x61 <=1 
C445: x13+x62-y13_62 <=1 
C446: x14+x16-y14_16 <=1 
C447: x14+x18 <=1 
C448: x14+x21 <=1 
C449: x14+x22-y14_22 <=1 
C450: x14+x23 <=1 
C451: x14+x27-y14_27 <=1 
C452: x14+x28-y14_28 <=1 
C453: x14+x29 <=1 
C454: x14+x31 <=1 
C455: x14+x33-y14_33 <=1 
C456: x14+x35-y14_35 <=1 
C457: x14+x36 <=1 
C458: x14+x37 <=1 
C459: x14+x39-y14_39 <=1 
C460: x14+x40-y14_40 <=1 
C461: x14+x41-y14_41 <=1 
C462: x14+x42-y14_42 <=1 
C463: x14+x44 <=1 
C464: x14+x45-y14_45 <=1 
C465: x14+x46 <=1 
C466: x14+x47 <=1 
C467: x14+x49 <=1 
C468: x14+x50-y14_50 <=1 
C469: x14+x53 <=1 
C470: x14+x54-y14_54 <=1 
C471: x14+x55-y14_55 <=1 
C472: x14+x57-y14_57 <=1 
C473: x14+x58 <=1 
C474: x14+x59 <=1 
C475: x14+x60-y14_60 <=1 
C476: x14+x61-y14_61 <=1 
C477: x14+x62 <=1 
C478: x15+x16 <=1 
C479: x15+x19-y15_19 <=1 
C480: x15+x20 <=1 
C481: x15+x21-y15_21 <=1 
C482: x15+x24-y15_24 <=1 
C483: x15+x25-y15_25 <=1 
C484: x15+x26-y15_26 <=1 
C485: x15+x28-y15_28 <=1 
C486: x15+x30 <=1 
C487: x15+x31-y15_31 <=1 
C488: x15+x39 <=1 
C489: x15+x40 <=1 
C490: x15+x42 <=1 
C491: x15+x44 <=1 
C492: x15+x45 <=1 
C493: x15+x46-y15_46 <=1 
C494: x15+x48-y15_48 <=1 
C495: x15+x51-y15_51 <=1 
C496: x15+x53 <=1 
C497: x15+x57-y15_57 <=1 
C498: x15+x58-y15_58 <=1 
C499: x15+x59 <=1 
C500: x15+x60 <=1 
C501: x15+x62 <=1 
C502: x16+x18-y16_18 <=1 
C503: x16+x19 <=1 
C504: x16+x23-y16_23 <=1 
C505: x16+x25 <=1 
C506: x16+x26-y16_26 <=1 
C507: x16+x27 <=1 
C508: x16+x28 <=1 
C509: x16+x30 <=1 
C510: x16+x31 <=1 
C511: x16+x32-y16_32 <=1 
C512: x16+x33 <=1 
C513: x16+x34-y16_34 <=1 
C514: x16+x35-y16_35 <=1 
C515: x16+x36-y16_36 <=1 
C516: x16+x37 <=1 
C517: x16+x38 <=1 
C518: x16+x40-y16_40 <=1 
C519: x16+x41 <=1 
C520: x16+x42-y16_42 <=1 
C521: x16+x44-y16_44 <=1 
C522: x16+x45 <=1 
C523: x16+x46 <=1 
C524: x16+x47 <=1 
C525: x16+x49-y16_49 <=1 
C526: x16+x51 <=1 
C527: x16+x52 <=1 
C528: x16+x53 <=1 
C529: x16+x58 <=1 
C530: x16+x59-y16_59 <=1 
C531: x16+x61-y16_61 <=1 
C532: x17+x18 <=1 
C533: x17+x19-y17_19 <=1 
C534: x17+x21-y17_21 <=1 
C535: x17+x22 <=1 
C536: x17+x23 <=1 
C537: x17+x26 <=1 
C538: x17+x27-y17_27 <=1 
C539: x17+x28 <=1 
C540: x17+x29-y17_29 <=1 
C541: x17+x30-y17_30 <=1 
C542: x17+x32 <=1 
C543: x17+x34-y17_34 <=1 
C544: x17+x36 <=1 
C545: x17+x37-y17_37 <=1 
C546: x17+x38-y17_38 <=1 
C547: x17+x39-y17_39 <=1 
C548: x17+x41-y17_41 <=1 
C549: x17+x42-y17_42 <=1 
C550: x17+x43-y17_43 <=1 
C551: x17+x44 <=1 
C552: x17+x45 <=1 
C553: x17+x47-y17_47 <=1 
C554: x17+x48 <=1 
C555: x17+x49-y17_49 <=1 
C556: x17+x51 <=1 
C557: x17+x52-y17_52 <=1 
C558: x17+x53 <=1 
C559: x17+x54 <=1 
C560: x17+x57-y17_57 <=1 
C561: x17+x58 <=1 
C562: x17+x60 <=1 
C563: x17+x61-y17_61 <=1 
C564: x17+x62-y17_62 <=1 
C565: x18+x19-y18_19 <=1 
C566: x18+x22 <=1 
C567: x18+x23-y18_23 <=1 
C568: x18+x24-y18_24 <=1 
C569: x18+x25 <=1 
C570: x18+x29-y18_29 <=1 
C571: x18+x31-y18_31 <=1 
C572: x18+x32-y18_32 <=1 
C573: x18+x33-y18_33 <=1 
C574: x18+x34-y18_34 <=1 
C575: x18+x35-y18_35 <=1 
C576: x18+x36-y18_36 <=1 
C577: x18+x37 <=1 
C578: x18+x38-y18_38 <=1 
C579: x18+x39-y18_39 <=1 
C580: x18+x40 <=1 
C581: x18+x43 <=1 
C582: x18+x45-y18_45 <=1 
C583: x18+x46 <=1 
C584: x18+x48 <=1 
C585: x18+x50 <=1 
C586: x18+x54 <=1 
C587: x18+x61 <=1 
C588: x18+x62 <=1 
C589: x19+x20 <=1 
C590: x19+x23 <=1 
C591: x19+x26-y19_26 <=1 
C592: x19+x29 <=1 
C593: x19+x30 <=1 
C594: x19+x31-y19_31 <=1 
C595: x19+x32 <=1 
C596: x19+x33-y19_33 <=1 
C597: x19+x34-y19_34 <=1 
C598: x19+x35 <=1 
C599: x19+x36-y19_36 <=1 
C600: x19+x38 <=1 
C601: x19+x39 <=1 
C602: x19+x42-y19_42 <=1 
C603: x19+x43-y19_43 <=1 
C604: x19+x44-y19_44 <=1 
C605: x19+x45 <=1 
C606: x19+x46-y19_46 <=1 
C607: x19+x47 <=1 
C608: x19+x50 <=1 
C609: x19+x51 <=1 
C610: x19+x53-y19_53 <=1 
C611: x19+x57-y19_57 <=1 
C612: x19+x58-y19_58 <=1 
C613: x19+x59-y19_59 <=1 
C614: x19+x60 <=1 
C615: x19+x61 <=1 
C616: x20+x22 <=1 
C617: x20+x23 <=1 
C618: x20+x25-y20_25 <=1 
C619: x20+x27 <=1 
C620: x20+x28 <=1 
C621: x20+x29 <=1 
C622: x20+x30-y20_30 <=1 
C623: x20+x34 <=1 
C624: x20+x35-y20_35 <=1 
C625: x20+x36-y20_36 <=1 
C626: x20+x37-y20_37 <=1 
C627: x20+x39 <=1 
C628: x20+x42 <=1 
C629: x20+x48 <=1 
C630: x20+x49-y20_49 <=1 
C631: x20+x50-y20_50 <=1 
C632: x20+x53 <=1 
C633: x20+x54 <=1 
C634: x20+x55 <=1 
C635: x20+x56-y20_56 <=1 
C636: x20+x58-y20_58 <=1 
C637: x20+x59 <=1 
C638: x20+x61-y20_61 <=1 
C639: x20+x62 <=1 
C640: x21+x25-y21_25 <=1 
C641: x21+x28 <=1 
C642: x21+x29-y21_29 <=1 
C643: x21+x31 <=1 
C644: x21+x33-y21_33 <=1 
C645: x21+x35 <=1 
C646: x21+x36-y21_36 <=1 
C647: x21+x37-y21_37 <=1 
C648: x21+x38 <=1 
C649: x21+x39-y21_39 <=1 
C650: x21+x41 <=1 
C651: x21+x42 <=1 
C652: x21+x43-y21_43 <=1 
C653: x21+x45 <=1 
C654: x21+x46-y21_46 <=1 
C655: x21+x47 <=1 
C656: x21+x50-y21_50 <=1 
C657: x21+x51 <=1 
C658: x21+x53-y21_53 <=1 
C659: x21+x54 <=1 
C660: x21+x56-y21_56 <=1 
C661: x21+x57 <=1 
C662: x21+x58-y21_58 <=1 
C663: x21+x59-y21_59 <=1 
C664: x21+x61 <=1 
C665: x22+x23-y22_23 <=1 
C666: x22+x25-y22_25 <=1 
C667: x22+x26-y22_26 <=1 
C668: x22+x28 <=1 
C669: x22+x29 <=1 
C670: x22+x30 <=1 
C671: x22+x31-y22_31 <=1 
C672: x22+x32-y22_32 <=1 
C673: x22+x35 <=1 
C674: x22+x37-y22_37 <=1 
C675: x22+x41-y22_41 <=1 
C676: x22+x42-y22_42 <=1 
C677: x22+x43-y22_43 <=1 
C678: x22+x45-y22_45 <=1 
C679: x22+x47-y22_47 <=1 
C680: x22+x48 <=1 
C681: x22+x49-y22_49 <=1 
C682: x22+x51-y22_51 <=1 
C683: x22+x52 <=1 
C684: x22+x54 <=1 
C685: x22+x55 <=1 
C686: x22+x59-y22_59 <=1 
C687: x22+x60-y22_60 <=1 
C688: x22+x62-y22_62 <=1 
C689: x23+x24 <=1 
C690: x23+x25 <=1 
C691: x23+x26-y23_26 <=1 
C692: x23+x28-y23_28 <=1 
C693: x23+x30 <=1 
C694: x23+x31-y23_31 <=1 
C695: x23+x32-y23_32 <=1 
C696: x23+x33 <=1 
C697: x23+x34-y23_34 <=1 
C698: x23+x35-y23_35 <=1 
C699: x23+x36 <=1 
C700: x23+x37 <=1 
C701: x23+x38-y23_38 <=1 
C702: x23+x39-y23_39 <=1 
C703: x23+x42 <=1 
C704: x23+x43 <=1 
C705: x23+x45-y23_45 <=1 
C706: x23+x47-y23_47 <=1 
C707: x23+x48-y23_48 <=1 
C708: x23+x50 <=1 
C709: x23+x52-y23_52 <=1 
C710: x23+x53 <=1 
C711: x23+x54-y23_54 <=1 
C712: x23+x55 <=1 
C713: x23+x56-y23_56 <=1 
C714: x23+x57-y23_57 <=1 
C715: x23+x58-y23_58 <=1 
C716: x23+x60-y23_60 <=1 
C717: x23+x61-y23_61 <=1 
C718: x24+x26-y24_26 <=1 
C719: x24+x35 <=1 
C720: x24+x36 <=1 
C721: x24+x37-y24_37 <=1 
C722: x24+x41-y24_41 <=1 
C723: x24+x44 <=1 
C724: x24+x45 <=1 
C725: x24+x47 <=1 
C726: x24+x49-y24_49 <=1 
C727: x24+x50-y24_50 <=1 
C728: x24+x51 <=1 
C729: x24+x53-y24_53 <=1 
C730: x24+x54-y24_54 <=1 
C731: x24+x55-y24_55 <=1 
C732: x24+x56-y24_56 <=1 
C733: x24+x60 <=1 
C734: x24+x61-y24_61 <=1 
C735: x24+x62-y24_62 <=1 
C736: x25+x26-y25_26 <=1 
C737: x25+x27 <=1 
C738: x25+x28 <=1 
C739: x25+x32-y25_32 <=1 
C740: x25+x35 <=1 
C741: x25+x36-y25_36 <=1 
C742: x25+x38-y25_38 <=1 
C743: x25+x41 <=1 
C744: x25+x42-y25_42 <=1 
C745: x25+x43-y25_43 <=1 
C746: x25+x45-y25_45 <=1 
C747: x25+x46 <=1 
C748: x25+x47 <=1 
C749: x25+x49-y25_49 <=1 
C750: x25+x51-y25_51 <=1 
C751: x25+x54 <=1 
C752: x25+x55-y25_55 <=1 
C753: x25+x56-y25_56 <=1 
C754: x25+x58 <=1 
C755: x25+x59-y25_59 <=1 
C756: x25+x60 <=1 
C757: x25+x61-y25_61 <=1 
C758: x25+x62-y25_62 <=1 
C759: x26+x28 <=1 
C760: x26+x30-y26_30 <=1 
C761: x26+x33 <=1 
C762: x26+x36 <=1 
C763: x26+x37-y26_37 <=1 
C764: x26+x38 <=1 
C765: x26+x39-y26_39 <=1 
C766: x26+x40 <=1 
C767: x26+x42 <=1 
C768: x26+x43 <=1 
C769: x26+x44-y26_44 <=1 
C770: x26+x45-y26_45 <=1 
C771: x26+x46-y26_46 <=1 
C772: x26+x47 <=1 
C773: x26+x48 <=1 
C774: x26+x50 <=1 
C775: x26+x52-y26_52 <=1 
C776: x26+x53-y26_53 <=1 
C777: x26+x54 <=1 
C778: x26+x55-y26_55 <=1 
C779: x26+x56 <=1 
C780: x27+x30-y27_30 <=1 
C781: x27+x31-y27_31 <=1 
C782: x27+x32-y27_32 <=1 
C783: x27+x35 <=1 
C784: x27+x37 <=1 
C785: x27+x40 <=1 
C786: x27+x41 <=1 
C787: x27+x42-y27_42 <=1 
C788: x27+x45 <=1 
C789: x27+x46 <=1 
C790: x27+x47 <=1 
C791: x27+x48-y27_48 <=1 
C792: x27+x50 <=1 
C793: x27+x53 <=1 
C794: x27+x54-y27_54 <=1 
C795: x27+x56-y27_56 <=1 
C796: x27+x57-y27_57 <=1 
C797: x27+x58 <=1 
C798: x27+x59-y27_59 <=1 
C799: x27+x62 <=1 
C800: x28+x31-y28_31 <=1 
C801: x28+x32-y28_32 <=1 
C802: x28+x34 <=1 
C803: x28+x35-y28_35 <=1 
C804: x28+x36-y28_36 <=1 
C805: x28+x38-y28_38 <=1 
C806: x28+x39 <=1 
C807: x28+x43 <=1 
C808: x28+x44 <=1 
C809: x28+x45-y28_45 <=1 
C810: x28+x47-y28_47 <=1 
C811: x28+x48-y28_48 <=1 
C812: x28+x49-y28_49 <=1 
C813: x28+x50 <=1 
C814: x28+x54-y28_54 <=1 
C815: x28+x55 <=1 
C816: x28+x56-y28_56 <=1 
C817: x28+x59 <=1 
C818: x28+x62-y28_62 <=1 
C819: x29+x30-y29_30 <=1 
C820: x29+x31 <=1 
C821: x29+x32 <=1 
C822: x29+x34 <=1 
C823: x29+x35 <=1 
C824: x29+x36-y29_36 <=1 
C825: x29+x37-y29_37 <=1 
C826: x29+x38-y29_38 <=1 
C827: x29+x40-y29_40 <=1 
C828: x29+x41 <=1 
C829: x29+x43-y29_43 <=1 
C830: x29+x44 <=1 
C831: x29+x45-y29_45 <=1 
C832: x29+x46 <=1 
C833: x29+x47 <=1 
C834: x29+x48 <=1 
C835: x29+x49-y29_49 <=1 
C836: x29+x51 <=1 
C837: x29+x52 <=1 
C838: x29+x53 <=1 
C839: x29+x54 <=1 
C840: x29+x60 <=1 
C841: x29+x62-y29_62 <=1 
C842: x30+x33-y30_33 <=1 
C843: x30+x34-y30_34 <=1 
C844: x30+x35 <=1 
C845: x30+x36 <=1 
C846: x30+x38-y30_38 <=1 
C847: x30+x39 <=1 
C848: x30+x40 <=1 
C849: x30+x42 <=1 
C850: x30+x44 <=1 
C851: x30+x45-y30_45 <=1 
C852: x30+x47 <=1 
C853: x30+x50 <=1 
C854: x30+x51 <=1 
C855: x30+x52-y30_52 <=1 
C856: x30+x54 <=1 
C857: x30+x55-y30_55 <=1 
C858: x30+x57-y30_57 <=1 
C859: x30+x61-y30_61 <=1 
C860: x31+x36 <=1 
C861: x31+x40-y31_40 <=1 
C862: x31+x45-y31_45 <=1 
C863: x31+x46 <=1 
C864: x31+x48 <=1 
C865: x31+x50 <=1 
C866: x31+x51-y31_51 <=1 
C867: x31+x52 <=1 
C868: x31+x55 <=1 
C869: x31+x56-y31_56 <=1 
C870: x31+x57-y31_57 <=1 
C871: x31+x59-y31_59 <=1 
C872: x31+x60-y31_60 <=1 
C873: x31+x61 <=1 
C874: x31+x62-y31_62 <=1 
C875: x32+x33-y32_33 <=1 
C876: x32+x34 <=1 
C877: x32+x36 <=1 
C878: x32+x38 <=1 
C879: x32+x39-y32_39 <=1 
C880: x32+x40 <=1 
C881: x32+x41 <=1 
C882: x32+x43-y32_43 <=1 
C883: x32+x46 <=1 
C884: x32+x47-y32_47 <=1 
C885: x32+x48 <=1 
C886: x32+x51 <=1 
C887: x32+x52-y32_52 <=1 
C888: x32+x53-y32_53 <=1 
C889: x32+x54 <=1 
C890: x32+x55-y32_55 <=1 
C891: x32+x56-y32_56 <=1 
C892: x32+x57 <=1 
C893: x32+x58 <=1 
C894: x32+x59 <=1 
C895: x33+x34-y33_34 <=1 
C896: x33+x36-y33_36 <=1 
C897: x33+x37 <=1 
C898: x33+x38 <=1 
C899: x33+x39-y33_39 <=1 
C900: x33+x41 <=1 
C901: x33+x42 <=1 
C902: x33+x44-y33_44 <=1 
C903: x33+x45-y33_45 <=1 
C904: x33+x47-y33_47 <=1 
C905: x33+x48 <=1 
C906: x33+x49 <=1 
C907: x33+x50 <=1 
C908: x33+x51 <=1 
C909: x33+x59 <=1 
C910: x33+x61-y33_61 <=1 
C911: x33+x62 <=1 
C912: x34+x35-y34_35 <=1 
C913: x34+x38 <=1 
C914: x34+x39 <=1 
C915: x34+x40 <=1 
C916: x34+x42 <=1 
C917: x34+x46-y34_46 <=1 
C918: x34+x50-y34_50 <=1 
C919: x34+x51 <=1 
C920: x34+x52 <=1 
C921: x34+x53-y34_53 <=1 
C922: x34+x54 <=1 
C923: x34+x56 <=1 
C924: x34+x57 <=1 
C925: x34+x61 <=1 
C926: x34+x62 <=1 
C927: x35+x40 <=1 
C928: x35+x41 <=1 
C929: x35+x42 <=1 
C930: x35+x43 <=1 
C931: x35+x44 <=1 
C932: x35+x47 <=1 
C933: x35+x49-y35_49 <=1 
C934: x35+x52 <=1 
C935: x35+x58-y35_58 <=1 
C936: x35+x61 <=1 
C937: x36+x37-y36_37 <=1 
C938: x36+x38-y36_38 <=1 
C939: x36+x40 <=1 
C940: x36+x42 <=1 
C941: x36+x45-y36_45 <=1 
C942: x36+x48 <=1 
C943: x36+x53 <=1 
C944: x36+x54-y36_54 <=1 
C945: x36+x55 <=1 
C946: x36+x58 <=1 
C947: x36+x61 <=1 
C948: x36+x62 <=1 
C949: x37+x41-y37_41 <=1 
C950: x37+x45-y37_45 <=1 
C951: x37+x49-y37_49 <=1 
C952: x37+x51 <=1 
C953: x37+x52-y37_52 <=1 
C954: x37+x53 <=1 
C955: x37+x54-y37_54 <=1 
C956: x37+x55 <=1 
C957: x37+x58 <=1 
C958: x37+x59 <=1 
C959: x37+x60-y37_60 <=1 
C960: x38+x40-y38_40 <=1 
C961: x38+x41 <=1 
C962: x38+x42-y38_42 <=1 
C963: x38+x43 <=1 
C964: x38+x47-y38_47 <=1 
C965: x38+x49 <=1 
C966: x38+x51 <=1 
C967: x38+x52-y38_52 <=1 
C968: x38+x54 <=1 
C969: x38+x55-y38_55 <=1 
C970: x38+x57-y38_57 <=1 
C971: x38+x59-y38_59 <=1 
C972: x38+x61-y38_61 <=1 
C973: x39+x40 <=1 
C974: x39+x42-y39_42 <=1 
C975: x39+x45-y39_45 <=1 
C976: x39+x47-y39_47 <=1 
C977: x39+x48 <=1 
C978: x39+x50 <=1 
C979: x39+x51-y39_51 <=1 
C980: x39+x52 <=1 
C981: x39+x53 <=1 
C982: x39+x54-y39_54 <=1 
C983: x39+x55-y39_55 <=1 
C984: x39+x56 <=1 
C985: x39+x58-y39_58 <=1 
C986: x39+x61 <=1 
C987: x39+x62-y39_62 <=1 
C988: x40+x41 <=1 
C989: x40+x44 <=1 
C990: x40+x45-y40_45 <=1 
C991: x40+x46 <=1 
C992: x40+x47-y40_47 <=1 
C993: x40+x48 <=1 
C994: x40+x49 <=1 
C995: x40+x50-y40_50 <=1 
C996: x40+x51-y40_51 <=1 
C997: x40+x52-y40_52 <=1 
C998: x40+x53-y40_53 <=1 
C999: x40+x54-y40_54 <=1 
C1000: x40+x55 <=1 
C1001: x40+x56 <=1 
C1002: x40+x57 <=1 
C1003: x40+x59-y40_59 <=1 
C1004: x40+x60-y40_60 <=1 
C1005: x41+x42-y41_42 <=1 
C1006: x41+x43-y41_43 <=1 
C1007: x41+x44 <=1 
C1008: x41+x45 <=1 
C1009: x41+x46-y41_46 <=1 
C1010: x41+x47-y41_47 <=1 
C1011: x41+x50-y41_50 <=1 
C1012: x41+x52 <=1 
C1013: x41+x53 <=1 
C1014: x41+x56 <=1 
C1015: x41+x58 <=1 
C1016: x41+x59-y41_59 <=1 
C1017: x41+x60-y41_60 <=1 
C1018: x41+x61-y41_61 <=1 
C1019: x42+x46-y42_46 <=1 
C1020: x42+x49-y42_49 <=1 
C1021: x42+x50 <=1 
C1022: x42+x51 <=1 
C1023: x42+x53 <=1 
C1024: x42+x56 <=1 
C1025: x42+x57-y42_57 <=1 
C1026: x42+x60 <=1 
C1027: x43+x44-y43_44 <=1 
C1028: x43+x45 <=1 
C1029: x43+x46-y43_46 <=1 
C1030: x43+x48 <=1 
C1031: x43+x49 <=1 
C1032: x43+x51-y43_51 <=1 
C1033: x43+x53-y43_53 <=1 
C1034: x43+x54-y43_54 <=1 
C1035: x43+x56-y43_56 <=1 
C1036: x43+x57 <=1 
C1037: x43+x59-y43_59 <=1 
C1038: x43+x60-y43_60 <=1 
C1039: x43+x62 <=1 
C1040: x44+x49-y44_49 <=1 
C1041: x44+x51 <=1 
C1042: x44+x53-y44_53 <=1 
C1043: x44+x54-y44_54 <=1 
C1044: x44+x55 <=1 
C1045: x44+x56 <=1 
C1046: x44+x58 <=1 
C1047: x44+x59 <=1 
C1048: x44+x60 <=1 
C1049: x44+x62 <=1 
C1050: x45+x46 <=1 
C1051: x45+x49-y45_49 <=1 
C1052: x45+x50-y45_50 <=1 
C1053: x45+x51-y45_51 <=1 
C1054: x45+x52 <=1 
C1055: x45+x55-y45_55 <=1 
C1056: x45+x59 <=1 
C1057: x45+x62-y45_62 <=1 
C1058: x46+x48 <=1 
C1059: x46+x52-y46_52 <=1 
C1060: x46+x54-y46_54 <=1 
C1061: x46+x55 <=1 
C1062: x46+x57-y46_57 <=1 
C1063: x46+x59 <=1 
C1064: x46+x61 <=1 
C1065: x46+x62-y46_62 <=1 
C1066: x47+x48-y47_48 <=1 
C1067: x47+x49 <=1 
C1068: x47+x50 <=1 
C1069: x47+x51 <=1 
C1070: x47+x53 <=1 
C1071: x47+x56-y47_56 <=1 
C1072: x47+x57 <=1 
C1073: x47+x58-y47_58 <=1 
C1074: x47+x61-y47_61 <=1 
C1075: x47+x62 <=1 
C1076: x48+x49-y48_49 <=1 
C1077: x48+x52 <=1 
C1078: x48+x53 <=1 
C1079: x48+x56 <=1 
C1080: x48+x57 <=1 
C1081: x48+x58 <=1 
C1082: x48+x59-y48_59 <=1 
C1083: x48+x61 <=1 
C1084: x49+x50 <=1 
C1085: x49+x51-y49_51 <=1 
C1086: x49+x52-y49_52 <=1 
C1087: x49+x53-y49_53 <=1 
C1088: x49+x55 <=1 
C1089: x49+x57 <=1 
C1090: x49+x59 <=1 
C1091: x49+x60 <=1 
C1092: x49+x62 <=1 
C1093: x50+x51 <=1 
C1094: x50+x52-y50_52 <=1 
C1095: x50+x53-y50_53 <=1 
C1096: x50+x54 <=1 
C1097: x50+x55 <=1 
C1098: x50+x57-y50_57 <=1 
C1099: x50+x58-y50_58 <=1 
C1100: x50+x59 <=1 
C1101: x50+x60 <=1 
C1102: x50+x61 <=1 
C1103: x51+x52 <=1 
C1104: x51+x54-y51_54 <=1 
C1105: x51+x56 <=1 
C1106: x51+x58-y51_58 <=1 
C1107: x51+x59-y51_59 <=1 
C1108: x51+x60-y51_60 <=1 
C1109: x51+x61 <=1 
C1110: x51+x62-y51_62 <=1 
C1111: x52+x53 <=1 
C1112: x52+x55 <=1 
C1113: x52+x57-y52_57 <=1 
C1114: x52+x58 <=1 
C1115: x52+x59-y52_59 <=1 
C1116: x52+x60-y52_60 <=1 
C1117: x52+x62 <=1 
C1118: x53+x56 <=1 
C1119: x53+x58 <=1 
C1120: x53+x60 <=1 
C1121: x53+x61-y53_61 <=1 
C1122: x53+x62 <=1 
C1123: x54+x56-y54_56 <=1 
C1124: x54+x57-y54_57 <=1 
C1125: x54+x59-y54_59 <=1 
C1126: x54+x60-y54_60 <=1 
C1127: x54+x61 <=1 
C1128: x55+x56-y55_56 <=1 
C1129: x55+x57-y55_57 <=1 
C1130: x55+x59-y55_59 <=1 
C1131: x55+x60-y55_60 <=1 
C1132: x55+x61-y55_61 <=1 
C1133: x55+x62 <=1 
C1134: x56+x57-y56_57 <=1 
C1135: x56+x59 <=1 
C1136: x56+x60-y56_60 <=1 
C1137: x56+x61 <=1 
C1138: x57+x61-y57_61 <=1 
C1139: x58+x61 <=1 
C1140: x58+x62-y58_62 <=1 
C1141: x59+x61 <=1 
C1142: x60+x62 <=1 
C1143: x61+x62-y61_62 <=1 

binary
x0
x1
x2
x3
x4
x5
x6
x7
x8
x9
x10
x11
x12
x13
x14
x15
x16
x17
x18
x19
x20
x21
x22
x23
x24
x25
x26
x27
x28
x29
x30
x31
x32
x33
x34
x35
x36
x37
x38
x39
x40
x41
x42
x43
x44
x45
x46
x47
x48
x49
x50
x51
x52
x53
x54
x55
x56
x57
x58
x59
x60
x61
x62
