problem_generation/data/GISP/train/er_n=63_m=1143_p=0.60_SET2_setparam=100.00_alpha=0.50_877.sol
objective value:                                 1182
x1                                                  1 	(obj:100)
x10                                                 1 	(obj:100)
x12                                                 1 	(obj:100)
x13                                                 1 	(obj:100)
x18                                                 1 	(obj:100)
x21                                                 1 	(obj:100)
x27                                                 1 	(obj:100)
x30                                                 1 	(obj:100)
x33                                                 1 	(obj:100)
x52                                                 1 	(obj:100)
x56                                                 1 	(obj:100)
x60                                                 1 	(obj:100)
y13_60                                              1 	(obj:-1)
y1_56                                               1 	(obj:-1)
y1_33                                               1 	(obj:-1)
y1_10                                               1 	(obj:-1)
y52_60                                              1 	(obj:-1)
y12_33                                              1 	(obj:-1)
y27_30                                              1 	(obj:-1)
y18_33                                              1 	(obj:-1)
y10_56                                              1 	(obj:-1)
y21_33                                              1 	(obj:-1)
y12_60                                              1 	(obj:-1)
y13_52                                              1 	(obj:-1)
y56_60                                              1 	(obj:-1)
y27_56                                              1 	(obj:-1)
y30_52                                              1 	(obj:-1)
y30_33                                              1 	(obj:-1)
y12_21                                              1 	(obj:-1)
y21_56                                              1 	(obj:-1)
